% File represents an instance of a Composite Structure problem to be solved by a CP framework
% Created on 2025-03-26 10:41:15.345
T = 50;
n = 9;
m = 12;
edges = [(1, 2),
(4, 5),
(7, 8),
(2, 3),
(5, 6),
(9, 8),
(1, 4),
(4, 7),
(2, 5),
(5, 8),
(3, 6),
(9, 6)];
counts = [|18, 6, 18, 8,
|16, 4, 16, 8,
|14, 4, 14, 6,
|18, 4, 18, 6,
|16, 4, 16, 6,
|14, 4, 14, 4,
|18, 4, 18, 4,
|16, 4, 16, 2,
|16, 4, 16, 4|];
